Route 1: 0 61 99 37 95 46 22 52 12 64 21 68 0
Route 2: 0 6 8 27 4 24 70 54 42 20 19 33 90 0
Route 3: 0 26 97 84 23 96 9 10 3 57 16 91 0
Route 4: 0 77 93 44 38 36 53 65 0
Route 5: 0 55 74 63 98 81 56 79 1 15 40 0
Route 6: 0 32 62 51 41 71 88 82 0
Route 7: 0 5 2 31 66 45 28 30 85 48 49 78 86 0
Route 8: 0 80 60 39 50 35 13 92 89 43 14 29 7 0
Route 9: 0 72 67 76 18 17 58 75 83 69 0
Route 10: 0 25 94 73 11 59 100 87 34 47 0
